#######################################
### Exact MIP solver for the HHCRSP ###
#######################################
-- Instance file: new-instances/HHCRSP_300_60_7_1.6_R_RC.txt
-- Max threads: 4
-- Time limit: 999999 seconds
-- Use initial solution: No
Trivial flow violations prevented generating 1130952 variables.
Version identifier: 20.1.0.0 | 2020-11-10 | 9bedb6d68
CPXPARAM_Threads                                 4
CPXPARAM_TimeLimit                               999999
Parallel mode: deterministic, using up to 4 threads for concurrent optimization:
 * Starting dual Simplex on 1 thread...
 * Starting Barrier on 3 threads...
Tried aggregator 1 time.
LP Presolve eliminated 41766 rows and 8172 columns.
Reduced LP has 1045510 rows, 995454 columns, and 21789369 nonzeros.
Presolve time = 23.62 sec. (4858.83 ticks)
Symmetry aggregator did 1621959 additional substitutions.

Iteration log . . .
Iteration:     1   Dual objective     =             0.000000
Iteration:  1414   Dual objective     =           368.500000

Dual crossover.
  Dual:  Fixing 1730 variables.
     1729 DMoves:  Infeasibility  9.17258758e-13  Objective  3.72000000e+02
        0 DMoves:  Infeasibility  4.49993643e-13  Objective  3.72000000e+02
  Dual:  Pushed 38, exchanged 1692.
  Primal:  Fixing 941 variables.
      940 PMoves:  Infeasibility  2.77555756e-17  Objective  3.72000000e+02
        0 PMoves:  Infeasibility  2.77555756e-17  Objective  3.72000000e+02
  Primal:  Pushed 795, exchanged 146.

Dual simplex solved model.


Solution status from MIP model:
-- Processing time: 39.161 sec.
-- Memory used: 953.74 MB
-- Best bound: inf
-- Obj value: 372
-- Gap: inf%
-- Total distance: 1116
-- Total tardiness: 0
-- Largest tardiness: 0
